
        $ From http://www.csplib.org/Problems/prob009/data/helmut.pdf
        $ Problem number 58
        $ Sequence length : 25
        language ESSENCE' 1.0
        letting sizemaster be 260
        letting sizes be sequence(1,4,6,7,10,15,24,26,27,28,29,31,33,34,37,38,44,65,70,71,77,78,83,100,112)
        